77 89 195 82 43 1 129 117 145 74 78 151 69 37 192 189 188 60 14 137 71 181 183 18 72 176 112 67 157 83 175 38 115 73 98 104 100 111 42 19 121 52 20 149 9 17 76 169 186 0 84 47 101 46 13 168 45 29 86 33 130 109 102 127 39 182 146 174 96 110 35 131 2 119 128 138 194 184 142 161 144 132 154 177 63 27 190 90 180 57 85 31 120 56 162 141 44 65 148 94 23 62 196 193 97 7 49 158 11 191 48 32 59 198 185 199 187 165 68 103 156 134 143 95 3 64 24 135 21 139 79 108 140 87 6 166 51 124 170 5 8 28 125 164 122 53 58 54 75 173 92 113 50 152 30 25 80 126 105 107 178 15 172 99 91 26 123 167 81 197 106 12 4 10 55 22 61 34 179 114 133 160 136 40 116 93 41 70 88 153 36 171 159 147 16 66 150 118 163 155 

